17	4
26	17	19	18	
0	0	0	0	0	3	2	3	4	
6	8	4	1	3	3	5	6	14	
7	0	0	3	7	3	5	10	12	
5	0	0	3	5	3	17	17	17	
5	1	5	0	2	3	7	9	17	
175	10	9	0	8	3	9	10	17	
250	2	9	4	4	3	8	17	17	
150	2	0	8	0	2	11	17	
100	1	2	4	6	3	11	13	17	
25	1	0	1	5	3	11	16	17	
75	8	10	3	7	3	17	17	17	
25	8	2	2	6	3	13	14	17	
10	6	2	10	0	2	15	17	
7	6	5	9	7	3	17	17	17	
9	9	8	8	5	3	16	17	17	
2	0	7	4	10	1	17	
0	0	0	0	0	0	
